; Submitted as a bug in that QF_LIA should not support declaring new sorts
; From Morgan Deters, 3/15/2014
(set-logic QF_LIA)
(set-info :smt-lib-version 2.0)
(set-info :category "unknown")
(set-info :status unknown)
(declare-sort S1 0)
(declare-fun f1 () S1)
(declare-fun f2 () S1)
(declare-fun f3 () Int)
(declare-fun f4 () Int)
(assert (not (= f1 f2)))
(assert (not (and (<= 0 (ite (< f3 0) (* (- 2) f3) (* 2 f3))) (<= 0 (ite (< f4 0) (* (- 2) f4) (* 2 f4))))))
(check-sat)
(exit)
